Geographic Exponential Decay
40 7 302 123 270 174 278 34 62 201 0 88 284 192 2 194 311 238 98 146 24 232 207 283 135 256 152 213 134 4 33 120 86 240 305 138 1 8 6 233 235
p edge 320 1212
e 0 191 52.0
e 0 99 36.0
e 0 142 51.0
e 0 84 49.0
e 0 235 22.0
e 0 313 64.0
e 0 192 48.0
e 0 249 54.0
e 0 229 12.0
e 0 185 66.0
e 0 270 10.0
e 0 297 100.0
e 0 204 60.0
e 0 22 63.0
e 0 39 27.0
e 0 31 63.0
e 0 85 73.0
e 0 227 5.0
e 0 278 28.0
e 0 232 74.0
e 0 105 99.0
e 0 129 25.0
e 0 283 26.0
e 0 211 63.0
e 0 188 12.0
e 0 107 54.0
e 0 13 84.0
e 1 136 51.0
e 1 138 82.0
e 1 165 31.0
e 1 143 6.0
e 1 273 81.0
e 1 142 79.0
e 1 293 90.0
e 1 279 90.0
e 1 303 73.0
e 1 166 78.0
e 1 33 80.0
e 1 208 3.0
e 1 76 23.0
e 1 12 74.0
e 1 246 14.0
e 1 308 74.0
e 1 174 12.0
e 1 111 56.0
e 1 139 28.0
e 1 89 34.0
e 1 301 48.0
e 1 107 12.0
e 1 29 94.0
e 1 280 48.0
e 1 46 48.0
e 1 154 96.0
e 1 274 96.0
e 2 98 5.0
e 2 13 54.0
e 2 203 14.0
e 2 24 58.0
e 2 46 90.0
e 2 281 51.0
e 2 205 14.0
e 2 138 84.0
e 2 274 37.0
e 2 288 58.0
e 2 175 95.0
e 2 255 52.0
e 2 223 44.0
e 2 171 59.0
e 2 309 40.0
e 2 92 26.0
e 2 307 37.0
e 2 82 50.0
e 2 308 3.0
e 2 64 39.0
e 2 63 80.0
e 2 303 85.0
e 2 124 58.0
e 2 126 99.0
e 2 313 8.0
e 2 296 81.0
e 2 74 15.0
e 3 294 12.0
e 3 41 3.0
e 3 230 7.0
e 3 4 72.0
e 4 69 64.0
e 4 309 87.0
e 4 271 59.0
e 4 272 93.0
e 4 311 1.0
e 4 241 73.0
e 4 70 34.0
e 4 61 18.0
e 4 299 80.0
e 4 212 23.0
e 4 264 42.0
e 4 15 62.0
e 4 307 3.0
e 4 54 87.0
e 4 55 51.0
e 4 259 65.0
e 4 291 10.0
e 4 303 63.0
e 4 308 41.0
e 4 80 5.0
e 4 114 100.0
e 4 123 34.0
e 4 84 54.0
e 4 312 97.0
e 4 120 45.0
e 4 214 32.0
e 5 155 3.0
e 6 138 61.0
e 6 317 58.0
e 6 300 27.0
e 6 150 1.0
e 6 64 68.0
e 6 312 82.0
e 6 11 58.0
e 6 151 17.0
e 6 237 35.0
e 6 168 73.0
e 6 306 64.0
e 6 123 33.0
e 6 107 83.0
e 6 56 12.0
e 6 112 24.0
e 6 239 97.0
e 6 41 12.0
e 6 222 18.0
e 6 172 14.0
e 6 194 14.0
e 6 93 21.0
e 6 281 45.0
e 6 50 12.0
e 6 76 94.0
e 6 179 37.0
e 6 230 21.0
e 6 186 92.0
e 7 82 37.0
e 7 260 90.0
e 7 315 51.0
e 7 231 71.0
e 7 242 44.0
e 7 261 23.0
e 7 281 13.0
e 7 192 34.0
e 7 57 38.0
e 7 166 20.0
e 7 243 34.0
e 7 183 98.0
e 7 124 85.0
e 7 78 2.0
e 7 96 37.0
e 7 92 23.0
e 7 226 13.0
e 7 157 53.0
e 7 113 76.0
e 7 202 12.0
e 7 189 59.0
e 7 13 15.0
e 7 8 100.0
e 7 230 76.0
e 7 77 41.0
e 7 145 40.0
e 7 210 86.0
e 8 311 21.0
e 8 148 16.0
e 8 92 83.0
e 8 41 46.0
e 8 16 39.0
e 8 262 16.0
e 8 235 37.0
e 8 316 57.0
e 8 56 14.0
e 8 13 46.0
e 8 126 97.0
e 8 159 33.0
e 8 122 97.0
e 8 73 73.0
e 8 282 94.0
e 8 87 85.0
e 8 175 32.0
e 8 142 11.0
e 8 318 95.0
e 8 85 91.0
e 8 224 83.0
e 8 57 68.0
e 8 314 67.0
e 8 86 2.0
e 8 257 38.0
e 8 156 67.0
e 9 25 2.0
e 10 38 1.0
e 10 184 4.0
e 14 260 1.0
e 15 204 1.0
e 17 199 1.0
e 18 155 14.0
e 18 38 18.0
e 18 213 12.0
e 18 172 3.0
e 18 62 10.0
e 18 83 11.0
e 18 77 17.0
e 19 5 2.0
e 20 190 1.0
e 21 94 11.0
e 21 56 1.0
e 23 165 9.0
e 24 245 99.0
e 24 308 15.0
e 24 246 45.0
e 24 161 8.0
e 24 162 6.0
e 24 291 67.0
e 24 156 71.0
e 24 42 4.0
e 24 262 67.0
e 24 263 37.0
e 24 211 79.0
e 24 219 30.0
e 24 232 32.0
e 24 40 51.0
e 24 220 96.0
e 24 163 3.0
e 24 237 63.0
e 24 296 56.0
e 24 55 61.0
e 24 85 61.0
e 24 102 5.0
e 24 248 80.0
e 24 185 74.0
e 24 107 55.0
e 24 207 88.0
e 24 58 96.0
e 25 246 1.0
e 26 178 5.0
e 27 294 1.0
e 28 148 1.0
e 29 153 5.0
e 29 236 12.0
e 29 266 4.0
e 30 263 4.0
e 31 226 11.0
e 31 119 12.0
e 31 273 2.0
e 32 173 2.0
e 32 80 5.0
e 33 230 31.0
e 33 49 57.0
e 33 194 58.0
e 33 155 31.0
e 33 244 92.0
e 33 241 59.0
e 33 174 85.0
e 33 297 58.0
e 33 133 92.0
e 33 245 27.0
e 33 179 39.0
e 33 106 42.0
e 33 6 98.0
e 33 312 19.0
e 33 211 94.0
e 33 213 47.0
e 33 2 83.0
e 33 210 29.0
e 33 157 67.0
e 33 92 96.0
e 33 37 100.0
e 33 225 46.0
e 33 164 86.0
e 33 149 91.0
e 33 105 2.0
e 33 255 82.0
e 34 17 75.0
e 34 313 78.0
e 34 272 4.0
e 34 293 7.0
e 34 133 98.0
e 34 161 8.0
e 34 242 97.0
e 34 292 35.0
e 34 213 97.0
e 34 317 91.0
e 34 314 93.0
e 34 106 71.0
e 34 165 100.0
e 34 121 86.0
e 34 5 25.0
e 34 258 23.0
e 34 247 71.0
e 34 124 13.0
e 34 60 54.0
e 34 57 49.0
e 34 80 54.0
e 34 77 8.0
e 34 122 88.0
e 34 307 90.0
e 34 15 97.0
e 34 68 10.0
e 34 283 28.0
e 35 218 3.0
e 36 309 2.0
e 43 131 7.0
e 43 231 11.0
e 43 245 28.0
e 43 37 33.0
e 43 22 46.0
e 43 184 3.0
e 43 149 19.0
e 43 38 12.0
e 43 291 4.0
e 43 219 5.0
e 43 69 29.0
e 43 145 2.0
e 43 235 39.0
e 43 135 74.0
e 44 141 1.0
e 45 1 44.0
e 47 110 2.0
e 48 254 1.0
e 49 209 3.0
e 50 0 45.0
e 51 1 6.0
e 52 104 1.0
e 53 99 6.0
e 56 139 3.0
e 58 27 5.0
e 59 80 1.0
e 61 183 1.0
e 62 121 9.0
e 62 303 71.0
e 62 296 7.0
e 62 27 93.0
e 62 241 69.0
e 62 266 70.0
e 62 224 16.0
e 62 98 87.0
e 62 29 15.0
e 62 281 65.0
e 62 208 93.0
e 62 243 46.0
e 62 209 52.0
e 62 136 50.0
e 62 161 69.0
e 62 150 85.0
e 62 284 100.0
e 62 269 55.0
e 62 200 70.0
e 62 239 21.0
e 62 194 94.0
e 62 297 92.0
e 62 248 14.0
e 62 61 15.0
e 62 84 54.0
e 62 11 31.0
e 65 194 56.0
e 65 191 11.0
e 65 137 6.0
e 65 120 71.0
e 66 156 4.0
e 66 241 1.0
e 67 27 1.0
e 70 281 12.0
e 71 297 1.0
e 71 181 10.0
e 72 317 4.0
e 74 124 8.0
e 74 257 7.0
e 74 275 46.0
e 75 138 61.0
e 79 36 4.0
e 79 160 3.0
e 81 134 63.0
e 86 247 78.0
e 86 177 100.0
e 86 15 91.0
e 86 167 43.0
e 86 20 15.0
e 86 311 24.0
e 86 122 69.0
e 86 96 21.0
e 86 223 76.0
e 86 7 70.0
e 86 190 2.0
e 86 98 8.0
e 86 202 19.0
e 86 217 64.0
e 86 198 14.0
e 86 221 69.0
e 86 273 14.0
e 86 281 67.0
e 86 93 93.0
e 86 300 26.0
e 86 203 42.0
e 86 165 79.0
e 86 140 23.0
e 86 89 69.0
e 86 4 64.0
e 86 313 1.0
e 87 76 7.0
e 87 116 12.0
e 87 192 5.0
e 88 248 77.0
e 88 1 58.0
e 88 238 44.0
e 88 7 72.0
e 88 42 1.0
e 88 74 56.0
e 88 106 95.0
e 88 95 46.0
e 88 252 41.0
e 88 156 21.0
e 88 75 90.0
e 88 284 72.0
e 88 257 47.0
e 88 113 49.0
e 88 83 42.0
e 88 176 14.0
e 88 111 16.0
e 88 304 54.0
e 88 204 81.0
e 88 294 83.0
e 88 293 38.0
e 88 286 89.0
e 88 144 80.0
e 88 258 49.0
e 88 52 97.0
e 88 103 68.0
e 88 169 38.0
e 90 208 1.0
e 90 81 4.0
e 91 256 18.0
e 94 208 1.0
e 94 73 5.0
e 94 137 5.0
e 97 307 43.0
e 97 86 26.0
e 98 140 61.0
e 98 28 55.0
e 98 130 12.0
e 98 216 73.0
e 98 27 40.0
e 98 99 10.0
e 98 25 33.0
e 98 213 89.0
e 98 177 56.0
e 98 284 31.0
e 98 24 20.0
e 98 14 96.0
e 98 52 73.0
e 98 171 56.0
e 98 127 46.0
e 98 201 36.0
e 98 258 23.0
e 98 186 16.0
e 98 125 25.0
e 98 170 76.0
e 98 81 72.0
e 98 137 58.0
e 98 221 7.0
e 98 174 19.0
e 99 165 7.0
e 100 318 1.0
e 101 201 93.0
e 102 36 5.0
e 103 222 4.0
e 104 90 5.0
e 108 286 6.0
e 108 212 2.0
e 109 248 1.0
e 113 134 9.0
e 113 234 3.0
e 114 254 12.0
e 114 124 7.0
e 114 77 8.0
e 115 306 1.0
e 116 1 99.0
e 117 306 2.0
e 118 187 1.0
e 120 176 17.0
e 120 308 97.0
e 120 244 96.0
e 120 265 24.0
e 120 213 21.0
e 120 34 46.0
e 120 248 22.0
e 120 30 79.0
e 120 8 7.0
e 120 156 53.0
e 120 209 70.0
e 120 167 53.0
e 120 152 78.0
e 120 71 95.0
e 120 242 98.0
e 120 297 47.0
e 120 98 35.0
e 120 31 97.0
e 120 91 82.0
e 120 227 99.0
e 120 39 25.0
e 120 310 59.0
e 120 101 97.0
e 120 169 82.0
e 120 88 46.0
e 122 116 11.0
e 123 260 7.0
e 123 62 25.0
e 123 139 24.0
e 123 227 17.0
e 123 268 84.0
e 123 166 10.0
e 123 153 60.0
e 123 57 61.0
e 123 305 28.0
e 123 50 87.0
e 123 36 51.0
e 123 204 22.0
e 123 271 38.0
e 123 230 55.0
e 123 95 66.0
e 123 160 91.0
e 123 118 78.0
e 123 246 67.0
e 123 211 88.0
e 123 301 97.0
e 123 72 90.0
e 123 236 35.0
e 123 248 21.0
e 123 299 21.0
e 123 32 22.0
e 125 184 2.0
e 126 162 5.0
e 126 163 10.0
e 126 45 3.0
e 126 120 7.0
e 126 245 22.0
e 127 226 4.0
e 128 258 1.0
e 129 255 7.0
e 129 187 6.0
e 129 160 5.0
e 130 71 4.0
e 132 217 1.0
e 134 311 48.0
e 134 42 84.0
e 134 77 72.0
e 134 169 83.0
e 134 60 60.0
e 134 170 6.0
e 134 266 67.0
e 134 154 92.0
e 134 267 14.0
e 134 276 10.0
e 134 105 61.0
e 134 287 17.0
e 134 89 28.0
e 134 223 86.0
e 134 243 89.0
e 134 43 100.0
e 134 306 74.0
e 134 12 78.0
e 134 54 96.0
e 134 211 13.0
e 134 70 8.0
e 134 114 30.0
e 134 144 37.0
e 134 220 18.0
e 134 57 85.0
e 135 235 43.0
e 135 24 83.0
e 135 152 75.0
e 135 194 94.0
e 135 2 3.0
e 135 216 95.0
e 135 257 97.0
e 135 226 71.0
e 135 90 86.0
e 135 8 19.0
e 135 133 79.0
e 135 315 61.0
e 135 163 65.0
e 135 208 91.0
e 135 154 36.0
e 135 32 23.0
e 135 180 62.0
e 135 236 80.0
e 135 187 39.0
e 135 232 87.0
e 135 112 3.0
e 135 174 91.0
e 135 162 49.0
e 135 164 24.0
e 135 288 15.0
e 135 19 20.0
e 138 292 57.0
e 138 233 59.0
e 138 89 52.0
e 138 194 66.0
e 138 112 29.0
e 138 76 49.0
e 138 246 94.0
e 138 114 26.0
e 138 99 60.0
e 138 307 30.0
e 138 280 2.0
e 138 172 30.0
e 138 86 98.0
e 138 37 63.0
e 138 119 52.0
e 138 108 64.0
e 138 171 61.0
e 138 59 66.0
e 138 248 3.0
e 138 95 68.0
e 138 306 82.0
e 138 161 47.0
e 138 94 77.0
e 139 234 10.0
e 141 13 5.0
e 143 22 11.0
e 143 133 9.0
e 143 193 7.0
e 145 310 12.0
e 145 194 86.0
e 146 81 22.0
e 146 298 80.0
e 146 42 97.0
e 146 284 58.0
e 146 159 30.0
e 146 66 20.0
e 146 35 23.0
e 146 15 38.0
e 146 123 18.0
e 146 128 77.0
e 146 226 60.0
e 146 105 55.0
e 146 101 58.0
e 146 153 24.0
e 146 176 87.0
e 146 274 76.0
e 146 227 84.0
e 146 1 54.0
e 146 202 44.0
e 146 10 48.0
e 146 167 85.0
e 146 238 62.0
e 146 310 80.0
e 146 113 96.0
e 146 147 22.0
e 146 148 48.0
e 146 67 9.0
e 147 145 2.0
e 152 134 80.0
e 152 317 29.0
e 152 89 70.0
e 152 282 34.0
e 152 242 68.0
e 152 270 68.0
e 152 243 13.0
e 152 184 87.0
e 152 302 48.0
e 152 294 32.0
e 152 61 46.0
e 152 235 48.0
e 152 158 5.0
e 152 99 93.0
e 152 140 52.0
e 152 173 26.0
e 152 240 96.0
e 152 32 98.0
e 152 78 23.0
e 152 17 59.0
e 152 190 97.0
e 152 56 37.0
e 152 18 57.0
e 152 133 77.0
e 152 258 42.0
e 153 285 9.0
e 158 281 12.0
e 158 195 12.0
e 158 305 52.0
e 169 48 5.0
e 174 128 8.0
e 174 145 5.0
e 174 34 90.0
e 174 270 5.0
e 174 261 68.0
e 174 125 14.0
e 174 41 68.0
e 174 244 47.0
e 174 164 34.0
e 174 121 25.0
e 174 5 83.0
e 174 105 6.0
e 174 181 63.0
e 174 156 28.0
e 174 274 74.0
e 174 245 21.0
e 174 126 36.0
e 174 53 41.0
e 174 198 14.0
e 174 78 5.0
e 174 208 86.0
e 174 233 54.0
e 174 247 17.0
e 178 207 59.0
e 181 185 8.0
e 181 110 12.0
e 182 69 2.0
e 182 25 2.0
e 188 114 1.0
e 189 227 2.0
e 189 91 8.0
e 189 87 1.0
e 192 246 45.0
e 192 68 7.0
e 192 245 81.0
e 192 31 9.0
e 192 162 75.0
e 192 229 58.0
e 192 69 89.0
e 192 272 78.0
e 192 35 3.0
e 192 71 24.0
e 192 241 41.0
e 192 287 12.0
e 192 234 34.0
e 192 193 34.0
e 192 11 81.0
e 192 294 33.0
e 192 58 15.0
e 192 208 3.0
e 192 175 84.0
e 192 181 94.0
e 192 301 96.0
e 192 233 100.0
e 192 22 3.0
e 192 295 24.0
e 194 27 77.0
e 194 42 8.0
e 194 157 64.0
e 194 306 82.0
e 194 182 9.0
e 194 199 60.0
e 194 249 70.0
e 194 212 18.0
e 194 204 13.0
e 194 257 45.0
e 194 189 55.0
e 194 10 76.0
e 194 236 69.0
e 194 244 27.0
e 194 158 34.0
e 194 159 7.0
e 194 28 27.0
e 194 114 4.0
e 194 311 88.0
e 194 187 98.0
e 196 277 1.0
e 197 209 1.0
e 200 51 2.0
e 201 283 40.0
e 201 126 27.0
e 201 230 12.0
e 201 238 22.0
e 201 66 100.0
e 201 164 4.0
e 201 63 28.0
e 201 118 82.0
e 201 91 44.0
e 201 147 59.0
e 201 314 40.0
e 201 239 3.0
e 201 196 26.0
e 201 195 43.0
e 201 73 40.0
e 201 149 91.0
e 201 249 100.0
e 201 310 39.0
e 201 34 46.0
e 201 226 78.0
e 201 284 60.0
e 201 69 13.0
e 201 232 81.0
e 201 148 11.0
e 201 180 33.0
e 202 149 20.0
e 202 299 10.0
e 202 230 2.0
e 202 73 14.0
e 206 52 1.0
e 207 85 84.0
e 207 183 77.0
e 207 278 55.0
e 207 315 6.0
e 207 261 21.0
e 207 22 54.0
e 207 30 97.0
e 207 290 93.0
e 207 255 69.0
e 207 27 72.0
e 207 124 62.0
e 207 215 76.0
e 207 231 85.0
e 207 277 41.0
e 207 31 42.0
e 207 216 14.0
e 207 203 94.0
e 207 125 44.0
e 207 165 49.0
e 207 219 79.0
e 207 181 67.0
e 207 280 22.0
e 207 191 36.0
e 207 65 10.0
e 207 232 93.0
e 213 156 30.0
e 213 240 45.0
e 213 273 23.0
e 213 101 84.0
e 213 113 24.0
e 213 99 55.0
e 213 268 97.0
e 213 12 100.0
e 213 39 60.0
e 213 272 38.0
e 213 123 32.0
e 213 111 69.0
e 213 190 62.0
e 213 200 47.0
e 213 13 38.0
e 213 72 67.0
e 213 316 18.0
e 213 49 35.0
e 213 145 68.0
e 213 140 53.0
e 213 167 63.0
e 213 28 12.0
e 214 280 6.0
e 214 61 1.0
e 214 294 3.0
e 215 184 2.0
e 218 47 2.0
e 223 245 5.0
e 224 205 7.0
e 224 300 5.0
e 228 312 3.0
e 231 76 3.0
e 231 79 18.0
e 231 268 4.0
e 231 106 11.0
e 232 190 58.0
e 232 223 68.0
e 232 35 28.0
e 232 6 72.0
e 232 142 24.0
e 232 231 58.0
e 232 104 67.0
e 232 235 73.0
e 232 210 3.0
e 232 102 52.0
e 232 105 80.0
e 232 53 88.0
e 232 239 4.0
e 232 172 38.0
e 232 157 50.0
e 232 240 35.0
e 232 110 81.0
e 232 237 22.0
e 232 241 68.0
e 232 256 2.0
e 232 103 78.0
e 232 279 90.0
e 233 219 92.0
e 233 137 40.0
e 233 187 8.0
e 233 241 34.0
e 233 141 62.0
e 233 116 15.0
e 233 312 86.0
e 233 78 32.0
e 233 108 97.0
e 233 139 76.0
e 233 175 80.0
e 233 26 98.0
e 233 72 18.0
e 233 194 50.0
e 233 157 60.0
e 233 212 25.0
e 233 283 60.0
e 233 148 30.0
e 233 61 97.0
e 233 182 54.0
e 233 75 71.0
e 233 191 1.0
e 233 129 19.0
e 233 181 7.0
e 235 9 17.0
e 235 270 70.0
e 235 199 31.0
e 235 16 42.0
e 235 114 77.0
e 235 5 19.0
e 235 66 16.0
e 235 276 23.0
e 235 212 96.0
e 235 169 80.0
e 235 39 85.0
e 235 214 99.0
e 235 20 11.0
e 235 259 1.0
e 235 260 18.0
e 235 187 1.0
e 235 236 1.0
e 235 108 77.0
e 235 146 1.0
e 235 140 6.0
e 235 174 70.0
e 238 20 29.0
e 238 8 90.0
e 238 125 36.0
e 238 60 25.0
e 238 11 98.0
e 238 211 44.0
e 238 196 33.0
e 238 294 41.0
e 238 147 12.0
e 238 181 65.0
e 238 33 65.0
e 238 314 46.0
e 238 279 33.0
e 238 12 98.0
e 238 167 6.0
e 238 123 90.0
e 238 218 37.0
e 238 159 69.0
e 238 71 92.0
e 238 24 21.0
e 238 83 70.0
e 238 89 3.0
e 238 232 1.0
e 238 212 51.0
e 240 179 74.0
e 240 133 79.0
e 240 279 73.0
e 240 160 61.0
e 240 22 78.0
e 240 115 43.0
e 240 112 23.0
e 240 161 80.0
e 240 146 70.0
e 240 165 35.0
e 240 127 53.0
e 240 144 38.0
e 240 113 86.0
e 240 137 56.0
e 240 206 75.0
e 240 76 49.0
e 240 266 82.0
e 240 38 42.0
e 240 190 73.0
e 240 125 15.0
e 240 16 4.0
e 240 180 80.0
e 240 124 24.0
e 240 135 41.0
e 250 139 4.0
e 251 291 1.0
e 251 255 8.0
e 251 224 5.0
e 251 252 3.0
e 252 221 1.0
e 252 124 11.0
e 253 57 1.0
e 256 216 19.0
e 256 146 94.0
e 256 107 18.0
e 256 189 20.0
e 256 82 32.0
e 256 164 38.0
e 256 41 76.0
e 256 61 2.0
e 256 249 81.0
e 256 141 47.0
e 256 207 94.0
e 256 209 38.0
e 256 8 15.0
e 256 76 7.0
e 256 182 46.0
e 256 114 8.0
e 256 218 80.0
e 256 121 86.0
e 256 194 38.0
e 256 250 58.0
e 256 292 96.0
e 256 52 93.0
e 256 83 91.0
e 256 175 46.0
e 256 7 93.0
e 261 295 11.0
e 262 94 19.0
e 262 192 28.0
e 262 180 24.0
e 262 23 23.0
e 262 43 15.0
e 264 306 4.0
e 269 153 3.0
e 270 229 26.0
e 270 11 63.0
e 270 260 72.0
e 270 90 80.0
e 270 293 8.0
e 270 158 97.0
e 270 231 24.0
e 270 291 89.0
e 270 154 8.0
e 270 16 37.0
e 270 184 39.0
e 270 78 4.0
e 270 42 14.0
e 270 92 46.0
e 270 74 5.0
e 270 28 23.0
e 270 195 50.0
e 270 162 25.0
e 270 71 55.0
e 270 91 8.0
e 270 282 49.0
e 270 271 37.0
e 270 281 55.0
e 275 172 44.0
e 275 175 18.0
e 275 160 48.0
e 275 304 38.0
e 275 48 22.0
e 275 162 9.0
e 275 23 35.0
e 275 153 20.0
e 275 280 7.0
e 275 136 7.0
e 275 123 55.0
e 275 215 39.0
e 275 193 20.0
e 278 244 66.0
e 278 198 54.0
e 278 251 42.0
e 278 243 56.0
e 278 3 36.0
e 278 154 9.0
e 278 201 82.0
e 278 273 10.0
e 278 231 96.0
e 278 108 29.0
e 278 315 9.0
e 278 309 76.0
e 278 307 18.0
e 278 20 56.0
e 278 55 100.0
e 278 303 12.0
e 278 236 55.0
e 278 215 28.0
e 278 171 62.0
e 278 155 70.0
e 278 112 24.0
e 278 124 85.0
e 278 175 75.0
e 278 156 53.0
e 278 45 95.0
e 283 76 94.0
e 283 279 2.0
e 283 251 65.0
e 283 198 95.0
e 283 121 44.0
e 283 105 43.0
e 283 258 68.0
e 283 86 43.0
e 283 43 55.0
e 283 252 82.0
e 283 143 20.0
e 283 228 56.0
e 283 167 5.0
e 283 136 33.0
e 283 259 25.0
e 283 108 73.0
e 283 231 69.0
e 283 19 51.0
e 283 137 86.0
e 283 94 48.0
e 283 305 94.0
e 283 212 40.0
e 283 119 25.0
e 284 93 14.0
e 284 192 88.0
e 284 144 60.0
e 284 6 56.0
e 284 150 34.0
e 284 265 19.0
e 284 13 25.0
e 284 238 17.0
e 284 295 67.0
e 284 94 30.0
e 284 52 45.0
e 284 120 67.0
e 284 191 40.0
e 284 244 45.0
e 284 256 89.0
e 284 57 95.0
e 284 231 37.0
e 284 260 78.0
e 284 161 93.0
e 284 212 31.0
e 284 268 5.0
e 284 140 1.0
e 285 261 12.0
e 286 213 37.0
e 286 275 42.0
e 289 40 1.0
e 292 209 9.0
e 298 201 92.0
e 298 158 5.0
e 298 73 6.0
e 298 207 93.0
e 298 250 14.0
e 298 3 9.0
e 302 221 33.0
e 302 206 34.0
e 302 222 24.0
e 302 63 59.0
e 302 127 81.0
e 302 157 73.0
e 302 291 64.0
e 302 203 13.0
e 302 270 70.0
e 302 318 35.0
e 302 39 89.0
e 302 253 42.0
e 302 97 70.0
e 302 81 94.0
e 302 7 43.0
e 302 106 77.0
e 302 282 23.0
e 302 223 51.0
e 302 126 30.0
e 302 179 52.0
e 302 163 77.0
e 302 247 8.0
e 302 281 97.0
e 302 235 1.0
e 302 103 71.0
e 302 70 75.0
e 304 180 12.0
e 304 99 7.0
e 305 109 57.0
e 305 207 58.0
e 305 195 41.0
e 305 303 77.0
e 305 176 96.0
e 305 204 7.0
e 305 37 84.0
e 305 300 93.0
e 305 177 36.0
e 305 220 61.0
e 305 193 17.0
e 305 9 82.0
e 305 180 48.0
e 305 132 65.0
e 305 10 26.0
e 305 31 10.0
e 305 312 50.0
e 305 50 82.0
e 305 45 39.0
e 305 61 39.0
e 305 8 65.0
e 305 280 53.0
e 305 255 37.0
e 305 209 14.0
e 307 296 49.0
e 307 89 13.0
e 307 270 27.0
e 307 110 14.0
e 307 82 45.0
e 307 188 46.0
e 307 16 39.0
e 307 200 6.0
e 311 34 95.0
e 311 199 76.0
e 311 11 33.0
e 311 92 78.0
e 311 95 20.0
e 311 104 49.0
e 311 19 39.0
e 311 20 100.0
e 311 65 53.0
e 311 253 92.0
e 311 221 48.0
e 311 186 83.0
e 311 176 53.0
e 311 243 84.0
e 311 301 94.0
e 311 281 78.0
e 311 292 43.0
e 311 188 67.0
e 311 231 18.0
e 311 147 75.0
e 311 210 73.0
e 311 315 94.0
e 313 262 7.0
e 313 310 14.0
e 313 129 13.0
e 319 246 4.0
